sat

(objectives
 ((bvadd PriceProv5 (bvadd PriceProv4 (bvadd PriceProv3 (bvadd PriceProv1 PriceProv2)))) (_ bv1079 32))
)
;; statistics
(
 :cnf-variables 1458
 :cnf-literals 6345
 :cnf-clauses 2705
 :sat-checks 13
 :sat-restarts 25
 :sat-decisions 30233
 :sat-random-decisions 15
 :sat-propagations 24245498
 :sat-theory-propagations 4
 :sat-watched-clauses-visited 27655893
 :sat-binary-watched-clauses-visited 16546785
 :sat-conflicts 5473
 :sat-theory-conflicts 0
 :theory-necessary-interface-equalities 0
 :theory-extra-interface-equalities 0
 :euf-total-calls 32180
 :euf-complete-calls 14
 :euf-conflicts 0
 :euf-implications 4
 :euf-explanations 3
 :euf-egraph-nodes-created 11892
 :euf-egraph-nodes-deleted 9244
 :euf-num-asserted-equalities 325300
 :euf-num-asserted-inequalities 228642
 :euf-num-merges 548675
 :euf-num-merges-undone 548675
 :euf-num-atoms-retold 1952
 :la-total-calls 32180
 :la-complete-calls 14
 :la-conflicts 0
 :la-implications 0
 :la-explanations 0
 :la-num-equalities-split 0
 :la-num-tableau-rows 0
 :la-num-tableau-variables 0
 :bv-total-calls 32180
 :bv-complete-calls 14
 :bv-conflicts 0
 :bv-implications 0
 :bv-explanations 0
 :fp-total-calls 32180
 :fp-complete-calls 14
 :fp-conflicts 0
 :fp-implications 0
 :fp-explanations 0
 :arr-total-calls 32180
 :arr-complete-calls 14
 :arr-conflicts 0
 :arr-implications 0
 :arr-explanations 0
 :arr-write-lemmas-added 0
 :arr-row-lemmas-added 0
 :arr-ext-lemmas-added 0
 :arr-const-lemmas-added 0
 :na-total-calls 32180
 :na-complete-calls 14
 :na-conflicts 0
 :na-implications 0
 :na-explanations 0
 :na-num_nonlinear_multiplications 0
 :na-num_axiom_checks 0
 :na-num_zero_lemmas 0
 :na-num_sign_lemmas 0
 :na-num_neutral_lemmas 0
 :na-num_proportionality_lemmas 0
 :na-num_bound_lemmas 0
 :na-num_tangent_lemmas 0
 :na-num_monotonicity_lemmas 0
 :na-num_sat_checks 0
 :na-axiom_check_time 0.000
 :na-sat_check_time 0.000
 :time-seconds 3.271
 :memory-mb 36.365
)
